c 3 - XORSAT
p cnf 30 120
3 6 20 0
-3 -6 20 0
-3 6 -20 0
3 -6 -20 0
-22 -27 -29 0
-22 27 29 0
22 -27 29 0
22 27 -29 0
-1 -11 -18 0
-1 11 18 0
1 -11 18 0
1 11 -18 0
5 12 9 0
-5 -12 9 0
-5 12 -9 0
5 -12 -9 0
-3 -23 -28 0
-3 23 28 0
3 -23 28 0
3 23 -28 0
-22 -25 -27 0
-22 25 27 0
22 -25 27 0
22 25 -27 0
2 19 21 0
-2 -19 21 0
-2 19 -21 0
2 -19 -21 0
-3 -13 -26 0
-3 13 26 0
3 -13 26 0
3 13 -26 0
-4 -20 -25 0
-4 20 25 0
4 -20 25 0
4 20 -25 0
5 6 9 0
-5 -6 9 0
-5 6 -9 0
5 -6 -9 0
6 21 25 0
-6 -21 25 0
-6 21 -25 0
6 -21 -25 0
-11 -19 -28 0
-11 19 28 0
11 -19 28 0
11 19 -28 0
-26 -29 -22 0
-26 29 22 0
26 -29 22 0
26 29 -22 0
-15 -20 -26 0
-15 20 26 0
15 -20 26 0
15 20 -26 0
7 24 30 0
-7 -24 30 0
-7 24 -30 0
7 -24 -30 0
-1 -16 -23 0
-1 16 23 0
1 -16 23 0
1 16 -23 0
-7 -12 -30 0
-7 12 30 0
7 -12 30 0
7 12 -30 0
4 8 13 0
-4 -8 13 0
-4 8 -13 0
4 -8 -13 0
1 15 16 0
-1 -15 16 0
-1 15 -16 0
1 -15 -16 0
-9 -10 -14 0
-9 10 14 0
9 -10 14 0
9 10 -14 0
-5 -8 -29 0
-5 8 29 0
5 -8 29 0
5 8 -29 0
7 19 21 0
-7 -19 21 0
-7 19 -21 0
7 -19 -21 0
27 28 24 0
-27 -28 24 0
-27 28 -24 0
27 -28 -24 0
2 10 14 0
-2 -10 14 0
-2 10 -14 0
2 -10 -14 0
8 12 17 0
-8 -12 17 0
-8 12 -17 0
8 -12 -17 0
16 17 23 0
-16 -17 23 0
-16 17 -23 0
16 -17 -23 0
-4 -11 -24 0
-4 11 24 0
4 -11 24 0
4 11 -24 0
-2 -15 -17 0
-2 15 17 0
2 -15 17 0
2 15 -17 0
-10 -13 -18 0
-10 13 18 0
10 -13 18 0
10 13 -18 0
14 30 18 0
-14 -30 18 0
-14 30 -18 0
14 -30 -18 0
